(set-logic HORN)
(declare-fun !inv0 (Int (Array Int Int) Int ) Bool)
(declare-fun !inv3 (Int (Array Int Int) Int ) Bool)
(declare-fun !inv2 (Int (Array Int Int) Int ) Bool)
(declare-fun !inv1 (Int (Array Int Int) Int ) Bool)
(declare-fun !inv4 (Int (Array Int Int) Int ) Bool)
(declare-fun !inv5 (Int (Array Int Int) Int ) Bool)
(declare-fun !inv6 (Int (Array Int Int) Int ) Bool)
(assert (forall ((N@0 Int)(a@0 (Array Int Int))(i@0 Int)) (=> (and (> |N@0| 0) (= |i@0| 0)) (!inv0 |N@0| |a@0| |i@0|))))
(assert (forall ((N@0 Int)(a@0 (Array Int Int))(i@0 Int)(a@1 (Array Int Int))(i@1 Int)) (=> (and (!inv0 |N@0| |a@0| |i@0|) (< |i@0| |N@0|) (= |a@1| (store |a@0| |i@0| 42)) (= |i@1| (+ |i@0| 1))) (!inv0 |N@0| |a@1| |i@1|))))
(assert (forall ((N@0 Int)(a@0 (Array Int Int))(i@0 Int)(i@1 Int)) (=> (and (!inv0 |N@0| |a@0| |i@0|) (not (< |i@0| |N@0|)) (= |i@1| 0)) (!inv1 |N@0| |a@0| |i@1|))))
(assert (forall ((N@0 Int)(a@0 (Array Int Int))(i@0 Int)(i@1 Int)) (=> (and (!inv2 |N@0| |a@0| |i@0|) (not (< |i@0| |N@0|)) (= |i@1| 0)) (!inv3 |N@0| |a@0| |i@1|))))
(assert (forall ((N@0 Int)(a@0 (Array Int Int))(i@0 Int)(a@1 (Array Int Int))(i@1 Int)) (=> (and (!inv2 |N@0| |a@0| |i@0|) (< |i@0| |N@0|) (= |a@1| (store |a@0| |i@0| 44)) (= |i@1| (+ |i@0| 1))) (!inv2 |N@0| |a@1| |i@1|))))
(assert (forall ((N@0 Int)(a@0 (Array Int Int))(i@0 Int)(i@1 Int)) (=> (and (!inv1 |N@0| |a@0| |i@0|) (not (< |i@0| |N@0|)) (= |i@1| 0)) (!inv2 |N@0| |a@0| |i@1|))))
(assert (forall ((N@0 Int)(a@0 (Array Int Int))(i@0 Int)(a@1 (Array Int Int))(i@1 Int)) (=> (and (!inv1 |N@0| |a@0| |i@0|) (< |i@0| |N@0|) (= |a@1| (store |a@0| |i@0| 43)) (= |i@1| (+ |i@0| 1))) (!inv1 |N@0| |a@1| |i@1|))))
(assert (forall ((N@0 Int)(a@0 (Array Int Int))(i@0 Int)(a@1 (Array Int Int))(i@1 Int)) (=> (and (!inv3 |N@0| |a@0| |i@0|) (< |i@0| |N@0|) (= |a@1| (store |a@0| |i@0| 45)) (= |i@1| (+ |i@0| 1))) (!inv3 |N@0| |a@1| |i@1|))))
(assert (forall ((N@0 Int)(a@0 (Array Int Int))(i@0 Int)(i@1 Int)) (=> (and (!inv3 |N@0| |a@0| |i@0|) (not (< |i@0| |N@0|)) (= |i@1| 0)) (!inv4 |N@0| |a@0| |i@1|))))
(assert (forall ((N@0 Int)(a@0 (Array Int Int))(i@0 Int)(a@1 (Array Int Int))(i@1 Int)) (=> (and (!inv4 |N@0| |a@0| |i@0|) (< |i@0| |N@0|) (= |a@1| (store |a@0| |i@0| 46)) (= |i@1| (+ |i@0| 1))) (!inv4 |N@0| |a@1| |i@1|))))
(assert (forall ((N@0 Int)(a@0 (Array Int Int))(i@0 Int)(i@1 Int)) (=> (and (!inv4 |N@0| |a@0| |i@0|) (not (< |i@0| |N@0|)) (= |i@1| 0)) (!inv5 |N@0| |a@0| |i@1|))))
(assert (forall ((N@0 Int)(a@0 (Array Int Int))(i@0 Int)(a@1 (Array Int Int))(i@1 Int)) (=> (and (!inv5 |N@0| |a@0| |i@0|) (< |i@0| |N@0|) (= |a@1| (store |a@0| |i@0| 47)) (= |i@1| (+ |i@0| 1))) (!inv5 |N@0| |a@1| |i@1|))))
(assert (forall ((N@0 Int)(a@0 (Array Int Int))(i@0 Int)(i@1 Int)) (=> (and (!inv5 |N@0| |a@0| |i@0|) (not (< |i@0| |N@0|)) (= |i@1| 0)) (!inv6 |N@0| |a@0| |i@1|))))
(assert (forall ((N@0 Int)(a@0 (Array Int Int))(i@0 Int)(a@1 (Array Int Int))(i@1 Int)) (=> (and (!inv6 |N@0| |a@0| |i@0|) (< |i@0| |N@0|) (= |a@1| (store |a@0| |i@0| 48)) (= |i@1| (+ |i@0| 1))) (!inv6 |N@0| |a@1| |i@1|))))
(assert (forall ((N@0 Int)(a@0 (Array Int Int))(i@0 Int)) (=> (and (!inv6 |N@0| |a@0| |i@0|) (not (< |i@0| |N@0|)) (not (forall ((x@0 Int)) (=> (and (<= 0 |x@0|) (< |x@0| |N@0|)) (= (select |a@0| |x@0|) 47))))) false)))
(check-sat)